s td 417 8 454
b 1 16 78 309
b 2 45 335 380
b 3 59 298 372
b 4 62 240 435
b 5 39 78 309
b 6 80 143 445
b 7 76 101 139
b 8 146 150 285
b 9 24 151 161
b 10 189 228 262
b 11 201 267 393
b 12 209 290 328
b 13 219 340 369
b 14 121 222 383
b 15 40 249 414
b 16 60 191 255
b 17 1 228
b 18 103 133 269
b 19 86 279 453
b 20 86 247 453
b 21 11 208 308
b 22 39 103
b 23 103 133
b 24 133 391
b 25 318 449 450
b 26 83 323 384
b 27 321 328
b 28 22 29 334
b 29 301 347 363
b 30 48 300 348
b 31 188 356 421
b 32 175 340
b 33 26 359 391
b 34 26 261 359
b 35 261 374
b 36 144 410 440
b 37 172 204 417
b 38 17 327 436
b 39 91 449
b 40 247 268
b 41 60 268
b 42 60 191
b 43 77 191
b 44 1 11 424
b 45 2 50 137
b 46 7 9 399
b 47 11 208 424
b 48 17 138 327
b 49 22 29 99
b 50 24 151 298
b 51 29 99 221
b 52 40 331 414
b 53 42 63 184 205
b 54 77 184 205
b 55 184 205
b 56 71 184
b 57 48 138 300
b 58 51 109 360
b 59 71 93 386
b 60 76 101 176
b 61 83 306 384
b 62 85 155 224
b 63 46 91 448
b 64 92 165 302
b 65 36 97 177 273
b 66 36 177 372
b 67 100 162 242 343
b 68 101 176 246
b 69 112 152 187
b 70 115 117 336
b 71 120 141 389
b 72 35 121 383
b 73 25 124 386
b 74 127 233 373
b 75 50 137 204
b 76 143 296 445
b 77 69 145 188
b 78 150 168 285
b 79 168 285 371
b 80 151 187 298
b 81 14 152 187
b 82 50 162 242
b 83 96 164 240
b 84 168 214 371
b 85 172 204 250
b 86 175 325 364
b 87 58 177 372
b 88 179 272 342
b 89 19 27 180
b 90 14 187 298
b 91 69 188 421
b 92 90 190 207
b 93 194 254 437
b 94 50 204 250
b 95 208 272 424
b 96 211 245 406
b 97 55 217 293
b 98 225 226 372
b 99 96 240 435
b 100 50 242 281
b 101 58 267 393
b 102 252 276 317
b 103 43 70 252 317
b 104 70 252 317
b 105 70 199 252
b 106 199 252 378
b 107 55 116 283 390
b 108 55 116 293
b 109 53 116 293
b 110 53 149 293 326
b 111 14 298 372
b 112 138 300 393
b 113 301 363 378
b 114 363 378 381
b 115 321 415 452
b 116 25 138 327
b 117 25 332 389
b 118 74 335 380
b 119 52 338 339
b 120 3 19 351
b 121 278 361 429
b 122 165 362 382
b 123 44 214 371
b 124 38 304 374
b 125 38 122 304 408
b 126 81 270 377 382
b 127 199 378 381
b 128 74 109 380
b 129 199 381 421
b 130 35 383 435
b 131 170 306 384
b 132 12 281 405
b 133 12 192 281 355
b 134 50 281 355
b 135 365 404 416
b 136 69 199 421
b 137 31 236 346 428
b 138 35 96 435
b 139 147 442 444
b 140 35 296 445
b 141 5 23 156 409
b 142 10 32 132 368
b 143 32 132 256 368
b 144 32 98 256 368
b 145 32 98 174
b 146 20 98 174
b 147 13 106 250 379
b 148 20 130 174 399
b 149 21 41 84 427
b 150 41 84 345 427
b 151 3 19 69 237 264 320 360 429
b 152 69 82 111 155 237 264 320 360
b 153 69 82 111 155 237 264 420
b 154 69 111 155 159 237 264 420
b 155 69 155 159 237 264 403 420
b 156 69 155 159 237 259 264 403
b 157 14 69 155 237 259 264 403
b 158 14 25 69 155 259 264 403
b 159 14 25 57 155 229 259 403
b 160 8 25 57 107 171 229 430
b 161 8 57 107 171 229 265 430
b 162 8 57 107 171 265 447
b 163 8 57 105 171 265 447
b 164 6 8 105 265 447
b 165 6 105 265 376
b 166 57 105 171 210 447
b 167 105 166 171 210 447
b 168 105 166 303 447
b 169 57 105 210 284
b 170 107 171 439 447
b 171 229 265 406 430
b 172 229 245 265 406
b 173 8 25 107 171 364 367 430
b 174 25 364 367 389 430
b 175 25 50 367 389
b 176 141 364 389 430
b 177 8 107 171 344 364 367 430
b 178 8 68 107 344
b 179 107 171 305 344 364 367
b 180 113 305 344 364
b 181 107 171 305 364 367 448
b 182 107 171 280 305 448
b 183 107 280 305 451
b 184 280 305 423 451
b 185 305 325 364 367 448
b 186 286 325 367 448
b 187 8 344 364 411 430
b 188 8 125 344 411
b 189 14 57 155 229 259 401 403
b 190 14 158 259 401
b 191 57 155 229 401 403 437
b 192 57 155 176 229 403 437
b 193 155 176 254 403 437
b 194 155 176 186 254 403
b 195 155 176 186 254 271
b 196 155 167 186 271
b 197 186 227 254 271
b 198 176 246 254 271
b 199 57 176 229 402 437
b 200 57 176 375 402
b 201 14 25 69 264 404
b 202 14 25 264 404 422
b 203 14 25 96 404 422
b 204 14 25 96 372 422
b 205 25 96 138 372
b 206 35 96 138 372
b 207 96 225 372 422
b 208 96 365 404 422
b 209 96 329 365 422
b 210 264 349 404 422
b 211 159 215 237 259
b 212 159 235 403 420
b 213 111 159 420 454
b 214 159 173 420 454
b 215 33 82 111 155 320 324 357 360
b 216 33 111 216 320 324 357 360
b 217 33 74 216 320 357 360
b 218 33 74 216 320 360 431
b 219 33 74 88 216 320 431
b 220 33 74 88 130 216 431
b 221 33 74 88 130 216 277
b 222 33 74 130 212 277
b 223 7 33 130 212 277
b 224 7 33 212 322
b 225 7 33 157 322
b 226 7 130 212 399
b 227 130 174 212 399
b 228 88 130 216 277 395
b 229 67 88 216 277 395
b 230 61 67 88 216 395
b 231 15 61 67 88 395
b 232 15 61 88 231
b 233 67 156 216 277 395
b 234 156 277 395 409
b 235 23 156 277 409
b 236 156 216 277 295
b 237 88 95 130 431
b 238 88 299 320 431
b 239 74 109 360 431
b 240 111 216 324 444
b 241 198 216 324 444
b 242 33 82 115 155 324 357 426
b 243 33 49 115 324 357 426
b 244 49 115 324 336 357 426
b 245 49 115 336 357 419
b 246 115 154 336 357 419
b 247 108 115 154 336 419
b 248 108 115 336 345 419
b 249 30 336 345 419
b 250 84 108 115 345
b 251 108 154 196 419
b 252 154 200 354 357 419
b 253 200 218 354 357 358
b 254 200 218 288 357 358
b 255 89 200 218 288 357
b 256 89 288 357 385
b 257 89 218 288 387
b 258 218 315 354 357 358
b 259 104 315 357 358
b 260 218 315 354 358 396
b 261 218 223 354 396
b 262 307 315 358 396
b 263 315 316 354 396
b 264 154 200 333 354 419
b 265 154 333 354 438
b 266 49 324 336 426 446
b 267 49 294 336 426 446
b 268 49 248 294 446
b 269 294 314 426 446
b 270 33 49 169 324
b 271 82 115 155 163 426
b 272 115 155 163 366
b 273 155 163 312 366
b 274 54 163 312 366
b 275 82 155 163 224
b 276 19 27 264 429
b 277 3 19 69 165 237 320 360 429
b 278 19 165 203 237 320 360 429
b 279 19 126 165 203 237 360 429
b 280 19 126 165 203 251 360
b 281 19 118 126 165 251
b 282 19 118 165 251 338
b 283 19 118 165 338 353
b 284 52 118 338 353
b 285 19 165 338 353 382
b 286 144 338 353 382
b 287 110 144 353 382
b 288 19 165 213 353 382
b 289 118 251 338 434
b 290 126 203 251 319 360
b 291 202 251 319 360
b 292 203 260 319 360
b 293 126 251 266 319
b 294 126 197 203 237 429
b 295 197 203 237 392 429
b 296 126 197 203 425
b 297 3 69 165 199
b 298 3 69 234 264
b 299 3 233 234 264
b 300 135 233 234 264
b 301 28 66 331 414
b 302 66 330 331 414
b 303 31 236 346 394
b 304 34 102 257 275
b 305 56 102 257 275
b 306 56 102 214 257
b 307 44 102 214
b 308 44 214
b 309 44 452
b 310 258 415 452
b 311 104 258 415
b 312 37 142 197 278
b 313 142 197 278 429
b 314 41 84 108 345
b 315 46 286 367 448
b 316 53 149 229 326
b 317 65 136 341 401
b 318 136 158 341 401
b 319 66 243 330 331
b 320 238 243 330 331
b 321 73 99 221 244
b 322 79 305 423 451
b 323 81 239 270 382
b 324 239 270 313 382
b 325 239 313 382 440
b 326 110 239 382 440
b 327 110 144 382 440
b 328 239 313 418 440
b 329 58 87 195 296
b 330 58 195 296 393
b 331 58 296 372 393
b 332 35 296 372 393
b 333 35 138 372 393
b 334 93 306 350 386
b 335 306 350 386 443
b 336 6 94 265 376
b 337 99 160 221 244
b 338 160 221 244 289
b 339 160 221 258 289
b 340 129 160 244 289
b 341 221 258 315
b 342 104 258 315
b 343 47 106 250 379
b 344 47 50 250 379 394
b 345 47 50 250 306 394
b 346 47 170 306 394
b 347 50 355 379 394
b 348 119 176 375 402
b 349 122 304 408 413
b 350 241 304 408 413
b 351 241 287 304 413
b 352 108 241 408
b 353 108 196 408
b 354 108 114 196 419
b 355 123 171 280 448
b 356 128 229 402 437
b 357 134 355 379 394
b 358 136 158 259 401
b 359 135 140 234 373
b 360 135 233 234 373
b 361 142 197 392 429
b 362 147 198 216 444
b 363 148 154 333 438
b 364 149 229 245 326
b 365 229 245 326 406
b 366 153 263 370 400
b 367 159 178 230 388
b 368 181 329 365 422
b 369 57 182 210 284
b 370 3 165 183 199
b 371 15 61 193 231
b 372 206 313 418 440
b 373 105 166 220 303
b 374 159 173 230 388
b 375 159 173 388 454
b 376 64 232 352 441
b 377 64 352 432 441
b 378 18 64 432 441
b 379 18 131 432 441
b 380 18 72 131 441
b 381 18 72 131 337
b 382 72 131 253 337
b 383 72 253 337 366
b 384 253 311 337 366
b 385 47 236 346 394
b 386 47 170 346 394
b 387 238 243 313 331
b 388 185 243 313 331
b 389 185 243 313 433
b 390 185 243 398 433
b 391 243 370 398 433
b 392 185 398 424 433
b 393 253 311 312 366
b 394 54 311 312 366
b 395 4 263 370 400
b 396 4 243 370 400
b 397 4 243 370 433
b 398 4 243 310 400
b 399 272 342 397 424
b 400 342 397 412 424
b 401 33 274 282 322
b 402 33 157 282 322
b 403 166 171 210 291
b 404 292 299 320 431
b 405 15 67 297 395
b 406 165 213 302 382
b 407 185 342 412 424
b 408 185 407 412 424
b 409 185 398 407 424
b 410 313 433 440
b 411 50 207 250 306
b 412 50 90 207 306
b 413 50 90 306 386
b 414 50 75 90 386
b 415 90 306 386 443
b 416 50 75 386 389
b 417 25 50 386 389
1 5
2 118
3 111
4 99
5 22
6 76
7 60
8 78
9 50
10 17
11 101
12 27
13 32
14 72
15 52
16 42
17 44
18 23
19 20
20 40
21 47
22 23
23 24
24 33
25 39
26 61
27 115
28 49
29 113
30 57
31 91
32 86
33 34
34 35
35 124
36 327
37 85
38 48
39 63
40 41
41 42
42 43
43 54
44 47
45 75
46 226
47 95
48 116
49 51
50 80
51 337
52 302
53 55
54 55
55 56
56 59
57 112
58 239
59 334
60 68
61 131
62 275
63 315
64 406
65 66
66 87
67 82
68 198
69 81
70 244
71 176
72 130
73 417
74 360
75 94
76 140
77 91
78 79
79 84
80 90
81 90
82 100
83 99
84 123
85 94
86 185
87 331
88 399
89 276
90 111
91 136
92 412
93 193
94 411
95 399
96 172
97 108
98 207
99 138
100 134
101 331
102 104
103 104
104 105
105 106
106 127
107 108
108 109
109 110
110 316
111 204
112 333
113 114
114 127
115 310
116 205
117 174
118 128
119 284
120 151
121 313
122 285
123 308
124 125
125 349
126 323
127 129
128 239
129 136
130 138
131 346
132 133
133 134
134 347
135 208
136 297
137 303
138 206
139 362
140 332
141 235
142 143
143 144
144 145
145 146
146 148
147 343
148 227
149 150
150 314
151 152
151 276
151 277
151 298
152 153
152 215
153 154
154 155
154 213
155 156
155 212
156 157
156 211
157 158
158 159
158 201
159 160
159 189
160 161
160 173
161 162
161 171
162 163
162 170
163 164
163 166
164 165
165 336
166 167
166 169
167 403
167 168
168 373
169 369
171 172
172 365
173 174
173 177
174 175
174 176
175 417
177 178
177 179
177 187
179 180
179 181
181 182
181 185
182 355
182 183
183 184
184 322
185 186
186 315
187 188
189 190
189 191
190 358
191 192
192 193
192 199
193 194
194 195
195 196
195 197
195 198
199 356
199 200
200 348
201 202
202 203
202 210
203 204
203 208
204 205
204 207
205 206
206 333
208 209
209 368
213 214
214 375
215 216
215 242
216 217
216 240
217 218
218 219
218 239
219 220
219 238
220 221
220 237
221 222
221 228
222 223
223 224
223 226
224 225
225 402
226 227
228 229
229 230
229 233
230 231
231 405
231 232
232 371
233 234
233 236
234 235
238 404
240 241
241 362
242 243
242 271
243 244
243 270
244 245
244 266
245 246
246 247
246 252
247 248
247 251
248 249
248 250
250 314
251 353
251 354
252 253
252 264
253 254
253 258
254 255
255 256
255 257
258 259
258 260
259 342
260 261
260 262
260 263
264 265
265 363
266 267
267 268
267 269
271 272
271 275
272 273
273 274
274 394
277 278
277 297
278 279
279 280
279 294
280 281
280 290
281 282
282 283
282 289
283 284
283 285
285 286
285 288
286 287
287 327
288 406
290 291
290 292
290 293
294 295
294 296
295 361
297 370
298 299
299 300
300 360
301 302
302 319
303 385
304 305
305 306
306 307
307 308
308 309
309 310
310 311
311 342
312 313
313 361
316 364
317 318
318 358
319 320
320 387
321 337
323 324
324 325
325 410
325 328
325 326
326 327
328 372
329 330
330 331
331 332
332 333
334 335
335 415
337 338
338 340
338 339
339 341
341 342
343 344
344 347
344 345
345 411
345 346
346 386
347 357
349 350
350 351
350 352
352 353
359 360
364 365
366 395
367 374
374 375
376 377
377 378
378 379
379 380
380 381
381 382
382 383
383 384
384 393
385 386
387 388
388 389
389 410
389 390
390 391
390 392
391 397
392 409
393 394
395 396
396 398
396 397
399 400
400 407
401 402
407 408
408 409
411 412
412 413
413 415
413 414
414 416
416 417
